column=9;
row=9;
Board=[|5,0,7,2,3,9,0,0,0|0,0,3,6,0,0,4,0,0|0,1,6,5,0,0,9,0,0|0,0,0,0,0,2,0,1,9|0,0,2,3,7,1,0,4,0|0,0,5,4,9,6,2,0,0|7,0,0,0,0,4,0,6,5|0,5,8,9,6,0,1,7,0|3,0,0,7,2,0,8,0,0|];
horizontal=[|0,1,0,0,0,2,1,2|1,0,0,0,1,2,0,0|0,1,0,0,1,1,0,0|0,0,0,2,2,1,0,1|2,2,0,0,0,0,2,0|0,0,0,0,0,2,0,0|0,1,2,0,2,0,1,0|0,1,0,0,2,2,1,2|0,2,0,2,0,0,1,2|];
vertical=[|0,1,0,0,2,0,2,0,1|0,0,0,0,1,0,0,0,2|0,0,0,0,0,2,2,0,0|1,1,2,0,0,2,0,1,0|2,2,1,0,0,0,2,2,1|1,2,1,2,0,0,0,0,0|2,1,2,0,0,0,2,0,2|0,0,2,2,0,0,0,0,0|];
